#######################
Slurm job id: 17497813_250
Running on machine: p70
Running cmd: /nfs/shared/static-builds/gurobi1202 SOFTMEMLIMIT=125 MIPFocus=2 Presolve=2 TimeLimit=500 seed=19 /nfs/models/miplib2010/k16x240.mps.bz2
#######################
Set parameter TimeLimit to value 500
Set parameter SoftMemLimit to value 125
Set parameter MIPFocus to value 2
Set parameter LogFile to value 1202-MIPFocus2-Presolve2-TimeLimit500-k16x240-9.log
Set parameter Presolve to value 2
Set parameter Seed to value 19
Using license file /opt/gurobi/gurobi.lic

Gurobi Optimizer version 12.0.2 build v12.0.2rc0 (linux64 - "Ubuntu 22.04.4 LTS")
Copyright (c) 2025, Gurobi Optimization, LLC

Read MPS format model from file /nfs/models/miplib2010/k16x240.mps.bz2
Reading time = 0.00 seconds
k16x240: 256 rows, 480 columns, 960 nonzeros

Using Gurobi shared library /nfs/shared/static-builds/gurobi1202

CPU model: Intel(R) Xeon(R) E-2388G CPU @ 3.20GHz, instruction set [SSE2|AVX|AVX2|AVX512]
Thread count: 8 physical cores, 16 logical processors, using up to 16 threads

Non-default parameters:
TimeLimit  500
SoftMemLimit  125
MIPFocus  2
Presolve  2
Seed  19

Optimize a model with 256 rows, 480 columns and 960 nonzeros
Model fingerprint: 0x4e80885f
Variable types: 240 continuous, 240 integer (240 binary)
Coefficient statistics:
  Matrix range     [1e+00, 1e+03]
  Objective range  [1e+00, 1e+03]
  Bounds range     [1e+00, 1e+03]
  RHS range        [4e+00, 4e+02]
Found heuristic solution: objective 17517.000000
Presolve time: 0.00s
Presolved: 256 rows, 480 columns, 960 nonzeros
Variable types: 240 continuous, 240 integer (240 binary)
Root relaxation presolve removed 241 rows and 240 columns
Root relaxation presolved: 15 rows, 240 columns, 450 nonzeros


Root relaxation: objective 2.769838e+03, 16 iterations, 0.00 seconds (0.00 work units)

    Nodes    |    Current Node    |     Objective Bounds      |     Work
 Expl Unexpl |  Obj  Depth IntInf | Incumbent    BestBd   Gap | It/Node Time

     0     0 2769.83800    0   14 17517.0000 2769.83800  84.2%     -    0s
H    0     0                    11359.000000 2769.83800  75.6%     -    0s
H    0     0                    11195.000000 2769.83800  75.3%     -    0s
     0     0 8116.87580    0   26 11195.0000 8116.87580  27.5%     -    0s
H    0     0                    11144.000000 8190.91086  26.5%     -    0s
H    0     0                    11077.000000 8190.91086  26.1%     -    0s
H    0     0                    11061.000000 8588.30479  22.4%     -    0s
H    0     0                    11036.000000 8588.30479  22.2%     -    0s
     0     0 8588.30479    0   25 11036.0000 8588.30479  22.2%     -    0s
     0     0 8613.92228    0   22 11036.0000 8613.92228  21.9%     -    0s
H    0     0                    11001.000000 8718.84268  20.7%     -    0s
H    0     0                    10956.000000 8718.84268  20.4%     -    0s
     0     0 8718.84268    0   23 10956.0000 8718.84268  20.4%     -    0s
H    0     0                    10817.000000 8722.38805  19.4%     -    0s
H    0     0                    10764.000000 8722.38805  19.0%     -    0s
     0     0 8841.21632    0   38 10764.0000 8841.21632  17.9%     -    0s
     0     0 8841.47582    0   38 10764.0000 8841.47582  17.9%     -    0s
     0     0 8967.29818    0   46 10764.0000 8967.29818  16.7%     -    0s
     0     0 8990.19897    0   46 10764.0000 8990.19897  16.5%     -    0s
     0     0 8997.95530    0   42 10764.0000 8997.95530  16.4%     -    0s
H    0     0                    10739.000000 8997.95530  16.2%     -    0s
H    0     0                    10711.000000 9067.64059  15.3%     -    0s
     0     0 9067.64059    0   29 10711.0000 9067.64059  15.3%     -    0s
     0     0 9087.15636    0   31 10711.0000 9087.15636  15.2%     -    0s
     0     0 9090.37634    0   32 10711.0000 9090.37634  15.1%     -    0s
     0     0 9113.37211    0   33 10711.0000 9113.37211  14.9%     -    0s
     0     0 9115.94613    0   33 10711.0000 9115.94613  14.9%     -    0s
     0     2 9118.08574    0   33 10711.0000 9118.08574  14.9%     -    0s
H   35    62                    10678.000000 9190.21836  13.9%  54.1    0s
H 2184  1300                    10674.000000 9515.21224  10.9%  25.2    1s
 31133 11598     cutoff   34      10674.0000 10022.6791  6.10%  23.9    5s
 70944 16907 10342.6786   35   10 10674.0000 10216.0818  4.29%  25.2   10s
 110346 12490     cutoff   26      10674.0000 10377.6070  2.78%  25.9   15s

Cutting planes:
  Gomory: 4
  Lift-and-project: 11
  Cover: 75
  Implied bound: 17
  Dual implied bound: 17
  MIR: 232
  Flow cover: 283
  Flow path: 42
  Inf proof: 2
  Zero half: 4
  Network: 47
  Relax-and-lift: 1

Explored 136866 nodes (3467534 simplex iterations) in 18.35 seconds (26.32 work units)
Thread count was 16 (of 16 available processors)

Solution count 10: 10674 10678 10711 ... 11061

Optimal solution found (tolerance 1.00e-04)
Best objective 1.067400000000e+04, best bound 1.067400000000e+04, gap 0.0000%
